c cksystemsgroup.github.io/unicorn
c CNF contains a total of 572 clauses.
c CNF contains a total of 255 variables.
c CNF clauses cover 1 bad states.
c Variable name mapping (65 names):
c   1: input[bit=63]
c   4: input[bit=62]
c   7: input[bit=61]
c   10: input[bit=60]
c   13: input[bit=59]
c   16: input[bit=58]
c   19: input[bit=57]
c   22: input[bit=56]
c   25: input[bit=55]
c   28: input[bit=54]
c   31: input[bit=53]
c   34: input[bit=52]
c   37: input[bit=51]
c   40: input[bit=50]
c   43: input[bit=49]
c   46: input[bit=48]
c   49: input[bit=47]
c   52: input[bit=46]
c   55: input[bit=45]
c   58: input[bit=44]
c   61: input[bit=43]
c   64: input[bit=42]
c   67: input[bit=41]
c   70: input[bit=40]
c   73: input[bit=39]
c   76: input[bit=38]
c   79: input[bit=37]
c   82: input[bit=36]
c   85: input[bit=35]
c   88: input[bit=34]
c   91: input[bit=33]
c   94: input[bit=32]
c   97: input[bit=31]
c   100: input[bit=30]
c   103: input[bit=29]
c   106: input[bit=28]
c   109: input[bit=27]
c   112: input[bit=26]
c   115: input[bit=25]
c   118: input[bit=24]
c   121: input[bit=23]
c   124: input[bit=22]
c   127: input[bit=21]
c   130: input[bit=20]
c   133: input[bit=19]
c   136: input[bit=18]
c   139: input[bit=17]
c   142: input[bit=16]
c   145: input[bit=15]
c   148: input[bit=14]
c   151: input[bit=13]
c   154: input[bit=12]
c   157: input[bit=11]
c   160: input[bit=10]
c   163: input[bit=9]
c   166: input[bit=8]
c   169: input[bit=7]
c   172: input[bit=6]
c   175: input[bit=5]
c   178: input[bit=4]
c   181: input[bit=3]
c   184: input[bit=2]
c   187: input[bit=1]
c   190: input[bit=0]
c   255: ?
p cnf 255 572
-1 -2 0
1 2 0
3 0
-4 -5 0
4 5 0
6 0
-7 -8 0
7 8 0
9 0
-10 -11 0
10 11 0
12 0
-13 -14 0
13 14 0
15 0
-16 -17 0
16 17 0
18 0
-19 -20 0
19 20 0
21 0
-22 -23 0
22 23 0
24 0
-25 -26 0
25 26 0
27 0
-28 -29 0
28 29 0
30 0
-31 -32 0
31 32 0
33 0
-34 -35 0
34 35 0
36 0
-37 -38 0
37 38 0
39 0
-40 -41 0
40 41 0
-42 0
-43 -44 0
43 44 0
-45 0
-46 -47 0
46 47 0
48 0
-49 -50 0
49 50 0
-51 0
-52 -53 0
52 53 0
54 0
-55 -56 0
55 56 0
57 0
-58 -59 0
58 59 0
60 0
-61 -62 0
61 62 0
-63 0
-64 -65 0
64 65 0
-66 0
-67 -68 0
67 68 0
69 0
-70 -71 0
70 71 0
-72 0
-73 -74 0
73 74 0
-75 0
-76 -77 0
76 77 0
78 0
-79 -80 0
79 80 0
-81 0
-82 -83 0
82 83 0
-84 0
-85 -86 0
85 86 0
-87 0
-88 -89 0
88 89 0
90 0
-91 -92 0
91 92 0
93 0
-94 -95 0
94 95 0
96 0
-97 -98 0
97 98 0
-99 0
-100 -101 0
100 101 0
102 0
-103 -104 0
103 104 0
-105 0
-106 -107 0
106 107 0
-108 0
-109 -110 0
109 110 0
-111 0
-112 -113 0
112 113 0
114 0
-115 -116 0
115 116 0
-117 0
-118 -119 0
118 119 0
120 0
-121 -122 0
121 122 0
-123 0
-124 -125 0
124 125 0
-126 0
-127 -128 0
127 128 0
129 0
-130 -131 0
130 131 0
132 0
-133 -134 0
133 134 0
135 0
-136 -137 0
136 137 0
-138 0
-139 -140 0
139 140 0
-141 0
-142 -143 0
142 143 0
-144 0
-145 -146 0
145 146 0
147 0
-148 -149 0
148 149 0
150 0
-151 -152 0
151 152 0
153 0
-154 -155 0
154 155 0
-156 0
-157 -158 0
157 158 0
159 0
-160 -161 0
160 161 0
162 0
-163 -164 0
163 164 0
165 0
-166 -167 0
166 167 0
168 0
-169 -170 0
169 170 0
-171 0
-172 -173 0
172 173 0
-174 0
-175 -176 0
175 176 0
177 0
-178 -179 0
178 179 0
180 0
-181 -182 0
181 182 0
-183 0
-184 -185 0
184 185 0
186 0
-187 -188 0
187 188 0
-189 0
-190 -191 0
190 191 0
188 189 -192 0
188 191 -192 0
-189 -191 192 0
189 191 -192 0
-188 -191 192 0
-188 -189 192 0
185 186 -193 0
185 192 -193 0
-186 -192 193 0
186 192 -193 0
-185 -192 193 0
-185 -186 193 0
182 183 -194 0
182 193 -194 0
-183 -193 194 0
183 193 -194 0
-182 -193 194 0
-182 -183 194 0
179 180 -195 0
179 194 -195 0
-180 -194 195 0
180 194 -195 0
-179 -194 195 0
-179 -180 195 0
176 177 -196 0
176 195 -196 0
-177 -195 196 0
177 195 -196 0
-176 -195 196 0
-176 -177 196 0
173 174 -197 0
173 196 -197 0
-174 -196 197 0
174 196 -197 0
-173 -196 197 0
-173 -174 197 0
170 171 -198 0
170 197 -198 0
-171 -197 198 0
171 197 -198 0
-170 -197 198 0
-170 -171 198 0
167 168 -199 0
167 198 -199 0
-168 -198 199 0
168 198 -199 0
-167 -198 199 0
-167 -168 199 0
164 165 -200 0
164 199 -200 0
-165 -199 200 0
165 199 -200 0
-164 -199 200 0
-164 -165 200 0
161 162 -201 0
161 200 -201 0
-162 -200 201 0
162 200 -201 0
-161 -200 201 0
-161 -162 201 0
158 159 -202 0
158 201 -202 0
-159 -201 202 0
159 201 -202 0
-158 -201 202 0
-158 -159 202 0
155 156 -203 0
155 202 -203 0
-156 -202 203 0
156 202 -203 0
-155 -202 203 0
-155 -156 203 0
152 153 -204 0
152 203 -204 0
-153 -203 204 0
153 203 -204 0
-152 -203 204 0
-152 -153 204 0
149 150 -205 0
149 204 -205 0
-150 -204 205 0
150 204 -205 0
-149 -204 205 0
-149 -150 205 0
146 147 -206 0
146 205 -206 0
-147 -205 206 0
147 205 -206 0
-146 -205 206 0
-146 -147 206 0
143 144 -207 0
143 206 -207 0
-144 -206 207 0
144 206 -207 0
-143 -206 207 0
-143 -144 207 0
140 141 -208 0
140 207 -208 0
-141 -207 208 0
141 207 -208 0
-140 -207 208 0
-140 -141 208 0
137 138 -209 0
137 208 -209 0
-138 -208 209 0
138 208 -209 0
-137 -208 209 0
-137 -138 209 0
134 135 -210 0
134 209 -210 0
-135 -209 210 0
135 209 -210 0
-134 -209 210 0
-134 -135 210 0
131 132 -211 0
131 210 -211 0
-132 -210 211 0
132 210 -211 0
-131 -210 211 0
-131 -132 211 0
128 129 -212 0
128 211 -212 0
-129 -211 212 0
129 211 -212 0
-128 -211 212 0
-128 -129 212 0
125 126 -213 0
125 212 -213 0
-126 -212 213 0
126 212 -213 0
-125 -212 213 0
-125 -126 213 0
122 123 -214 0
122 213 -214 0
-123 -213 214 0
123 213 -214 0
-122 -213 214 0
-122 -123 214 0
119 120 -215 0
119 214 -215 0
-120 -214 215 0
120 214 -215 0
-119 -214 215 0
-119 -120 215 0
116 117 -216 0
116 215 -216 0
-117 -215 216 0
117 215 -216 0
-116 -215 216 0
-116 -117 216 0
113 114 -217 0
113 216 -217 0
-114 -216 217 0
114 216 -217 0
-113 -216 217 0
-113 -114 217 0
110 111 -218 0
110 217 -218 0
-111 -217 218 0
111 217 -218 0
-110 -217 218 0
-110 -111 218 0
107 108 -219 0
107 218 -219 0
-108 -218 219 0
108 218 -219 0
-107 -218 219 0
-107 -108 219 0
104 105 -220 0
104 219 -220 0
-105 -219 220 0
105 219 -220 0
-104 -219 220 0
-104 -105 220 0
101 102 -221 0
101 220 -221 0
-102 -220 221 0
102 220 -221 0
-101 -220 221 0
-101 -102 221 0
98 99 -222 0
98 221 -222 0
-99 -221 222 0
99 221 -222 0
-98 -221 222 0
-98 -99 222 0
95 96 -223 0
95 222 -223 0
-96 -222 223 0
96 222 -223 0
-95 -222 223 0
-95 -96 223 0
92 93 -224 0
92 223 -224 0
-93 -223 224 0
93 223 -224 0
-92 -223 224 0
-92 -93 224 0
89 90 -225 0
89 224 -225 0
-90 -224 225 0
90 224 -225 0
-89 -224 225 0
-89 -90 225 0
86 87 -226 0
86 225 -226 0
-87 -225 226 0
87 225 -226 0
-86 -225 226 0
-86 -87 226 0
83 84 -227 0
83 226 -227 0
-84 -226 227 0
84 226 -227 0
-83 -226 227 0
-83 -84 227 0
80 81 -228 0
80 227 -228 0
-81 -227 228 0
81 227 -228 0
-80 -227 228 0
-80 -81 228 0
77 78 -229 0
77 228 -229 0
-78 -228 229 0
78 228 -229 0
-77 -228 229 0
-77 -78 229 0
74 75 -230 0
74 229 -230 0
-75 -229 230 0
75 229 -230 0
-74 -229 230 0
-74 -75 230 0
71 72 -231 0
71 230 -231 0
-72 -230 231 0
72 230 -231 0
-71 -230 231 0
-71 -72 231 0
68 69 -232 0
68 231 -232 0
-69 -231 232 0
69 231 -232 0
-68 -231 232 0
-68 -69 232 0
65 66 -233 0
65 232 -233 0
-66 -232 233 0
66 232 -233 0
-65 -232 233 0
-65 -66 233 0
62 63 -234 0
62 233 -234 0
-63 -233 234 0
63 233 -234 0
-62 -233 234 0
-62 -63 234 0
59 60 -235 0
59 234 -235 0
-60 -234 235 0
60 234 -235 0
-59 -234 235 0
-59 -60 235 0
56 57 -236 0
56 235 -236 0
-57 -235 236 0
57 235 -236 0
-56 -235 236 0
-56 -57 236 0
53 54 -237 0
53 236 -237 0
-54 -236 237 0
54 236 -237 0
-53 -236 237 0
-53 -54 237 0
50 51 -238 0
50 237 -238 0
-51 -237 238 0
51 237 -238 0
-50 -237 238 0
-50 -51 238 0
47 48 -239 0
47 238 -239 0
-48 -238 239 0
48 238 -239 0
-47 -238 239 0
-47 -48 239 0
44 45 -240 0
44 239 -240 0
-45 -239 240 0
45 239 -240 0
-44 -239 240 0
-44 -45 240 0
41 42 -241 0
41 240 -241 0
-42 -240 241 0
42 240 -241 0
-41 -240 241 0
-41 -42 241 0
38 39 -242 0
38 241 -242 0
-39 -241 242 0
39 241 -242 0
-38 -241 242 0
-38 -39 242 0
35 36 -243 0
35 242 -243 0
-36 -242 243 0
36 242 -243 0
-35 -242 243 0
-35 -36 243 0
32 33 -244 0
32 243 -244 0
-33 -243 244 0
33 243 -244 0
-32 -243 244 0
-32 -33 244 0
29 30 -245 0
29 244 -245 0
-30 -244 245 0
30 244 -245 0
-29 -244 245 0
-29 -30 245 0
26 27 -246 0
26 245 -246 0
-27 -245 246 0
27 245 -246 0
-26 -245 246 0
-26 -27 246 0
23 24 -247 0
23 246 -247 0
-24 -246 247 0
24 246 -247 0
-23 -246 247 0
-23 -24 247 0
20 21 -248 0
20 247 -248 0
-21 -247 248 0
21 247 -248 0
-20 -247 248 0
-20 -21 248 0
17 18 -249 0
17 248 -249 0
-18 -248 249 0
18 248 -249 0
-17 -248 249 0
-17 -18 249 0
14 15 -250 0
14 249 -250 0
-15 -249 250 0
15 249 -250 0
-14 -249 250 0
-14 -15 250 0
11 12 -251 0
11 250 -251 0
-12 -250 251 0
12 250 -251 0
-11 -250 251 0
-11 -12 251 0
8 9 -252 0
8 251 -252 0
-9 -251 252 0
9 251 -252 0
-8 -251 252 0
-8 -9 252 0
5 6 -253 0
5 252 -253 0
-6 -252 253 0
6 252 -253 0
-5 -252 253 0
-5 -6 253 0
2 3 -254 0
2 253 -254 0
-3 -253 254 0
3 253 -254 0
-2 -253 254 0
-2 -3 254 0
-254 -255 0
254 255 0
255 0
